# --- Initialization ---
units            real
atom_style       full
boundary         p p f
pair_style       lj/cut/coul/long 10.0 10.0
bond_style       harmonic
angle_style      harmonic
kspace_style     pppm 1.0e-4
kspace_modify    slab 3.0

# --- System Definition ---
read_data        /mnt/c/Users/vbarv/Desktop/course/project/lammps/data/system_flat.data

pair_modify      mix arithmetic

# Groups
group            graphene type 3
group            water type 1 2
group            mobile type 1 2

# Define bottom graphene region (do not fix yet!)
region           bottom_layer block EDGE EDGE EDGE EDGE 0.0 5.0 units box
group            graphene_bottom region bottom_layer
group            fixed_atoms intersect graphene graphene_bottom

# --- Reflective walls ---
fix              zwalls all wall/reflect zlo EDGE zhi EDGE

# --- STEP 1: Energy Minimization WITHOUT graphene fixation ---
print            "Starting energy minimization without fixing graphene..."
min_style        cg
minimize         1.0e-6 1.0e-8 10000 100000
print            "Minimization done."

# Check results visually and energetically here if needed!

# --- STEP 2: Now fix bottom graphene atoms (safe after minimization) ---
fix              freeze fixed_atoms setforce 0.0 0.0 0.0
print            "Graphene bottom layer fixed."

# --- Initial velocities ---
velocity         mobile create 600.0 12345 mom yes rot no dist gaussian

# --- STEP 3: Short NVT equilibration to quickly stabilize system ---
fix              equil mobile nvt temp 300.0 300.0 100.0

thermo           500
thermo_style     custom step temp press pe ke etotal density

timestep         0.5
run              20000  # 10 ps quick equilibration

unfix            equil
print            "Equilibration finished."

# --- STEP 4: NVT Production run (300K) ---
fix              prod mobile nvt temp 300.0 300.0 100.0

dump             traj all atom 2000 trajectory_prod.lammpstrj
dump_modify      traj sort id

run              400000  # 50 ps production run

write_data       system_equilibrated_final.data
write_dump       all xyz final_configuration.xyz modify element O H C

print            "--- Simulation successfully completed ---"
